c An instance of conditional planning (by rintanen@informatik.uni-ulm.de)
p cnf 28 70
e 12 13 14 15 16 17 18 19 20 0
a 22 0
e 1 2 3 4 5 6 7 8 9 10 11 21 23 24 25 26 27 28 0
-23 22 0
22 24 0
-22 23 0
-22 -24 0
-25 0
-26 0
-27 0
28 0
-12 -25 0
-12 -26 0
-6 -13 0
-4 -13 0
-15 -27 0
-15 -25 0
-10 -17 0
-6 -17 0
-12 6 0
-12 4 0
-13 7 0
-13 5 0
-15 10 0
-15 6 0
-17 11 0
-17 7 0
-6 -16 0
-7 -18 0
-2 -12 -24 0
-3 -13 -21 0
-2 -15 -23 0
-8 -17 -21 0
-3 24 0
-1 3 0
-24 3 0
-3 1 0
-2 28 0
-21 2 0
-28 2 12 15 0
-28 2 15 24 0
-28 2 12 23 0
-28 2 23 24 0
-2 13 17 21 0
-2 3 17 21 0
-2 8 13 21 0
-2 3 8 21 0
-4 12 26 0
-5 4 13 0
-26 4 0
-4 5 0
-6 12 15 25 0
-7 6 13 17 0
-25 6 16 0
-6 7 18 0
-8 23 0
-9 8 0
-23 8 0
-8 9 0
-10 15 27 0
-11 10 17 0
-27 10 0
-10 11 0
-12 -15 0
-13 -17 0
-14 -19 0
-12 -16 0
-13 -18 0
-14 -20 0
-15 -16 0
-17 -18 0
-19 -20 0
-21 0
